(set-logic QF_BV)
(declare-fun a0 () (_ BitVec 4))
(declare-fun a1 () (_ BitVec 4))
(declare-fun a2 () (_ BitVec 4))
(declare-fun a3 () (_ BitVec 4))
(declare-fun a4 () (_ BitVec 4))
(declare-fun a5 () (_ BitVec 4))
(declare-fun a6 () (_ BitVec 4))
(declare-fun a7 () (_ BitVec 4))
(assert (not (bvult a0 a3)))
(assert (bvult a3 a7))
(assert (bvult a3 a6))
(assert (bvult a3 a5))
(assert (bvult a3 a4))
(assert (not (bvult a1 a3)))
(assert (bvult a3 a2))
(assert (bvult a3 a1))
(assert (bvult a1 a0))
(assert (bvult a2 a0))
(assert (not (bvult a0 a7)))
(assert (not (bvult a4 a0)))
(assert (bvult a0 a6))
(assert (not (bvult a0 a5)))
(assert (bvult a1 a7))
(assert (bvult a2 a7))
(assert (not (bvult a7 a5)))
(assert (not (bvult a1 a5)))
(assert (not (bvult a2 a5)))
(assert (bvult a5 a2))
(assert (bvult a2 a1))
(check-sat)
(exit)
